
Gurobi 10.0.3 (linux64, gurobi_cl) logging started Thu Nov  9 11:47:27 2023

Set parameter Username
Set parameter TimeLimit to value 3600
Set parameter LogFile to value "RCPSP_1122.log"
Set parameter Threads to value 32
Academic license - for non-commercial use only - expires 2024-11-06
Using license file /home/jrivera6/gurobi-licenses/v1003/compute-0-36/gurobi.lic

Gurobi Optimizer version 10.0.3 build v10.0.3rc0 (linux64)
Copyright (c) 2023, Gurobi Optimization, LLC

Read MPS format model from file RCPSP_1122.mps
Reading time = 0.05 seconds
RCPSP_1122: 42947 rows, 17020 columns, 134581 nonzeros

CPU model: Intel(R) Xeon(R) Gold 6130 CPU @ 2.10GHz, instruction set [SSE2|AVX|AVX2|AVX512]
Thread count: 32 physical cores, 32 logical processors, using up to 32 threads

Optimize a model with 42947 rows, 17020 columns and 134581 nonzeros
Model fingerprint: 0x13878226
Variable types: 92 continuous, 16928 integer (16928 binary)
Coefficient statistics:
  Matrix range     [1e+00, 5e+02]
  Objective range  [1e+00, 1e+00]
  Bounds range     [1e+00, 1e+00]
  RHS range        [1e+00, 5e+02]
Presolve removed 8859 rows and 1984 columns (presolve time = 5s) ...
Presolve removed 13372 rows and 3653 columns
Presolve time: 6.56s
Presolved: 29575 rows, 13367 columns, 96386 nonzeros
Variable types: 91 continuous, 13276 integer (13276 binary)

Root simplex log...

Iteration    Objective       Primal Inf.    Dual Inf.      Time
       0    8.7000000e+01   1.034849e+05   0.000000e+00      7s
    4457    8.7000000e+01   0.000000e+00   0.000000e+00      7s

Root relaxation: objective 8.700000e+01, 4457 iterations, 0.34 seconds (0.06 work units)

    Nodes    |    Current Node    |     Objective Bounds      |     Work
 Expl Unexpl |  Obj  Depth IntInf | Incumbent    BestBd   Gap | It/Node Time

     0     0   87.00000    0  133          -   87.00000      -     -   10s
     0     0   87.00000    0  136          -   87.00000      -     -   10s
     0     0   87.50000    0  644          -   87.50000      -     -   22s
     0     0   87.50000    0  635          -   87.50000      -     -   22s
     0     0   88.00000    0  540          -   88.00000      -     -   54s
     0     0   88.00000    0  699          -   88.00000      -     -   64s
     0     0   88.00000    0  580          -   88.00000      -     -   65s
     0     0   88.00000    0  609          -   88.00000      -     -   68s
     0     0   88.00000    0  581          -   88.00000      -     -   68s
     0     0   88.00000    0  614          -   88.00000      -     -   70s
     0     0   88.00000    0  607          -   88.00000      -     -   70s
     0     0   88.00000    0  836          -   88.00000      -     -   78s
     0     0   88.00000    0  700          -   88.00000      -     -   81s
     0     0   88.00000    0  617          -   88.00000      -     -   82s
     0     0   88.00000    0  616          -   88.00000      -     -   82s
     0     0   88.00000    0  633          -   88.00000      -     -   84s
     0     0   88.00000    0  654          -   88.00000      -     -   85s
     0     0   88.00000    0  655          -   88.00000      -     -   86s
     0     0   88.00000    0  456          -   88.00000      -     -   94s
     0     0   88.00000    0  388          -   88.00000      -     -   95s
     0     0   88.00000    0  384          -   88.00000      -     -   95s
     0     0   88.00000    0  476          -   88.00000      -     -   96s
     0     0   88.00000    0  606          -   88.00000      -     -  105s
     0     0   88.00000    0  688          -   88.00000      -     -  107s
     0     0   88.00000    0  624          -   88.00000      -     -  107s
     0     0   88.00000    0 1115          -   88.00000      -     -  111s
     0     0   88.00000    0  976          -   88.00000      -     -  112s
     0     0   88.00000    0  871          -   88.00000      -     -  113s
     0     0   88.00000    0  292          -   88.00000      -     -  125s
     0     0   88.00000    0  473          -   88.00000      -     -  126s
     0     0   88.00041    0  349          -   88.00041      -     -  129s
     0     0   88.00398    0  526          -   88.00398      -     -  131s
     0     0   88.00398    0  507          -   88.00398      -     -  131s
     0     0   88.00768    0  623          -   88.00768      -     -  132s
     0     0   88.00768    0  707          -   88.00768      -     -  133s
     0     0   88.00768    0  655          -   88.00768      -     -  134s
     0     0   88.00768    0  621          -   88.00768      -     -  134s
     0     0   88.00768    0  619          -   88.00768      -     -  134s
     0     0   88.03758    0  891          -   88.03758      -     -  141s
     0     0   88.03758    0  730          -   88.03758      -     -  142s
     0     0   88.03758    0  636          -   88.03758      -     -  142s
     0     0   88.16837    0  810          -   88.16837      -     -  144s
     0     0   88.16837    0  781          -   88.16837      -     -  145s
     0     0   88.16837    0  763          -   88.16837      -     -  145s
     0     0   88.21609    0  821          -   88.21609      -     -  146s
     0     0   88.21609    0  743          -   88.21609      -     -  147s
     0     0   88.21609    0  905          -   88.21609      -     -  148s
     0     0   88.21609    0  870          -   88.21609      -     -  149s
     0     0   88.21609    0  835          -   88.21609      -     -  154s
     0     0   88.21609    0  685          -   88.21609      -     -  156s
     0     0   88.21609    0  650          -   88.21609      -     -  156s
     0     0   88.23310    0  739          -   88.23310      -     -  160s
     0     0   88.23310    0  846          -   88.23310      -     -  160s
     0     0   88.23310    0  688          -   88.23310      -     -  165s
     0     0   88.23310    0  680          -   88.23310      -     -  165s
     0     0   88.39353    0  870          -   88.39353      -     -  169s
     0     0   88.39353    0  772          -   88.39353      -     -  169s
     0     0   88.39353    0  805          -   88.39353      -     -  171s
     0     0   88.57037    0  883          -   88.57037      -     -  177s
     0     0   88.57037    0  878          -   88.57037      -     -  178s
     0     0   88.57037    0  673          -   88.57037      -     -  182s
     0     0   88.57037    0  669          -   88.57037      -     -  183s
     0     0   88.57037    0  909          -   88.57037      -     -  190s
     0     0   88.57037    0  829          -   88.57037      -     -  190s
     0     0   88.57037    0  788          -   88.57037      -     -  196s
     0     0   88.57037    0  255          -   88.57037      -     -  208s
     0     0   88.57037    0  254          -   88.57037      -     -  208s
     0     0   88.57037    0  496          -   88.57037      -     -  213s
     0     0   88.57037    0  489          -   88.57037      -     -  213s
     0     0   88.57037    0  616          -   88.57037      -     -  221s
     0     0   88.57037    0  611          -   88.57037      -     -  221s
     0     0   88.57037    0  771          -   88.57037      -     -  223s
     0     0   88.57037    0  760          -   88.57037      -     -  223s
     0     0   88.57037    0  210          -   88.57037      -     -  233s
     0     0   88.57037    0  358          -   88.57037      -     -  235s
     0     0   88.57037    0  208          -   88.57037      -     -  241s
     0     0   88.57037    0  166          -   88.57037      -     -  245s
     0     2   88.57037    0  128          -   88.57037      -     -  268s
     1     3   95.00000    1  353          -   88.64706      -  2489  274s
     3     5   95.00000    2  348          -   89.00000      -   839  281s
     6    10   95.00000    3  346          -   90.00000      -   535  286s
    11    15   95.00000    4  345          -   91.00000      -   325  292s
    21    24   95.00000    5  410          -   91.00000      -   244  302s
    36    42   95.00000    6  691          -   91.00000      -   410  322s
    60    67   95.42857    7  784          -   91.00000      -   553  336s
    92    92   98.75000    8  556          -   91.00000      -   555  345s
   124   114  100.00000    9  511          -   91.00000      -   499  352s
   156   141  100.00000   10  509          -   91.00000      -   415  362s
   188   165  100.00000   11  456          -   91.00000      -   376  367s
   224   193  100.00000   12  454          -   91.00000      -   323  372s
   262   221  100.00000   13  454          -   91.00000      -   287  377s
   301   257  100.00000   14  456          -   91.00000      -   256  382s
   343   301  100.00000   16  458          -   91.00000      -   229  386s
   391   333  100.00000   18  456          -   91.00000      -   204  393s
   432   373  100.00000   19  471          -   91.00000      -   192  399s
   481   415  100.00000   20  522          -   91.00000      -   176  407s
   526   459  100.00000   21  525          -   91.00000      -   164  414s
   572   501  100.00000   22  525          -   91.00000      -   153  420s
   619   553  100.00000   23  523          -   91.00000      -   143  429s
   673   614  100.00000   24  525          -   91.00000      -   134  435s
   740   686  100.00000   26  525          -   91.00000      -   125  441s
   820   752  100.00000   29  488          -   91.00000      -   114  447s
   894   822  100.00000   30  551          -   91.00000      -   107  454s
   975   933  100.00000   31  484          -   91.00000      -   100  462s
  1100  1074  100.00000   32  481          -   91.00000      -  92.3  471s
  1244  1256  101.00000   34  488          -   91.00000      -  85.3  477s
  1431  1479  101.00000   37  447          -   91.00000      -  77.0  487s
  1661  1741  101.00000   44  421          -   91.00000      -  69.9  497s
  1931  2034  101.00000   54  420          -   91.00000      -  62.7  504s
  2231  2245  101.00000   63  448          -   91.00000      -  56.4  510s
  2445  2556  101.00000   65  488          -   91.00000      -  53.8  519s
  2766  2883  101.00000   73  483          -   91.00000      -  50.2  527s
  3102  3186  101.00000   75  513          -   91.00000      -  46.6  534s
  3426  3544  101.00000   86  547          -   91.00000      -  44.5  544s
  3801  3829  101.00000   90  570          -   91.00000      -  42.5  554s
  4114  4099  101.00000   94  598          -   91.00000      -  41.4  564s
  4410  4482  107.00000  103  543          -   91.00000      -  41.7  573s
  4817  4761  101.00000  104  692          -   91.00000      -  40.6  586s
  5108  5058  101.00000  105  691          -   91.00000      -  40.9  596s
  5448  5200  103.00000  107  651          -   91.00000      -  41.3  608s
  5630  5439   91.00000   11  291          -   91.00000      -  43.1  620s
  5889  5737   91.00000   16  482          -   91.00000      -  44.9  635s
  6242  6017   91.00000   20  518          -   91.00000      -  45.4  650s
  6553  6357   91.00000   30  455          -   91.00000      -  46.7  667s
  6926  6844   91.00000   34  408          -   91.00000      -  47.2  746s
  7447  7248   91.00000   58  403          -   91.00000      -  46.7  924s
  7899  7462   91.00000   59  427          -   91.00000      -  46.8 1095s
  8177  7861   92.81818   61  575          -   91.00000      -  49.1 1385s
  8641  8305   92.81818   82  520          -   91.00000      -  49.6 1552s
  9144  8306  106.00000  140  166          -   91.00000      -  49.7 3518s
  9145  8307   95.00000  177  166          -   91.00000      -  49.7 3523s

Explored 9145 nodes (586160 simplex iterations) in 4051.69 seconds (61.32 work units)
Thread count was 32 (of 32 available processors)

Solution count 0

Time limit reached
Best objective -, best bound 9.100000000000e+01, gap -

Unable to retrieve attribute 'X'

